NAME: line_20_62
TYPE: TSP
COMMENT: srandom_20_62
DIMENSION: 20
EDGE_WEIGHT_TYPE: EUC_2D
NODE_COORD_SECTION
1 994 922
2 2661 340
3 2319 911
4 966 3819
5 2604 3483
6 4483 4922
7 445 2444
8 4489 4469
9 1553 3795
10 1049 808
11 2744 4732
12 3164 513
13 3707 3960
14 1625 1207
15 3979 11
16 3054 4707
17 2107 498
18 305 76
19 4077 1372
20 2208 346
